p edge 100 700
e 1 6
e 1 7
e 1 9
e 1 30
e 1 54
e 1 59
e 1 68
e 2 17
e 2 22
e 2 48
e 2 61
e 2 89
e 2 94
e 2 99
e 3 4
e 3 23
e 3 28
e 3 48
e 3 75
e 3 81
e 3 84
e 4 24
e 4 50
e 4 72
e 4 73
e 4 75
e 4 82
e 4 95
e 5 24
e 5 27
e 5 31
e 5 39
e 5 41
e 5 48
e 5 53
e 6 16
e 6 35
e 6 44
e 6 45
e 6 52
e 6 71
e 6 89
e 7 2
e 7 16
e 7 23
e 7 26
e 7 28
e 7 46
e 7 99
e 8 4
e 8 14
e 8 36
e 8 49
e 8 55
e 8 90
e 8 90
e 9 14
e 9 16
e 9 30
e 9 32
e 9 38
e 9 39
e 9 86
e 10 27
e 10 63
e 10 69
e 10 79
e 10 85
e 10 88
e 10 89
e 11 12
e 11 16
e 11 33
e 11 49
e 11 66
e 11 71
e 11 93
e 12 28
e 12 44
e 12 48
e 12 51
e 12 69
e 12 89
e 12 91
e 13 2
e 13 24
e 13 34
e 13 44
e 13 48
e 13 90
e 13 96
e 14 16
e 14 26
e 14 48
e 14 57
e 14 85
e 14 85
e 14 89
e 15 4
e 15 14
e 15 36
e 15 52
e 15 72
e 15 75
e 15 97
e 16 7
e 16 8
e 16 14
e 16 22
e 16 36
e 16 45
e 16 51
e 17 14
e 17 40
e 17 40
e 17 49
e 17 69
e 17 71
e 17 89
e 18 32
e 18 43
e 18 57
e 18 58
e 18 67
e 18 78
e 18 100
e 19 11
e 19 23
e 19 40
e 19 41
e 19 41
e 19 56
e 19 87
e 20 1
e 20 25
e 20 37
e 20 60
e 20 74
e 20 92
e 20 100
e 21 39
e 21 45
e 21 45
e 21 51
e 21 52
e 21 64
e 21 79
e 22 23
e 22 34
e 22 44
e 22 45
e 22 53
e 22 77
e 22 83
e 23 44
e 23 46
e 23 48
e 23 49
e 23 59
e 23 76
e 23 89
e 24 2
e 24 23
e 24 33
e 24 42
e 24 50
e 24 57
e 24 89
e 25 8
e 25 13
e 25 21
e 25 35
e 25 49
e 25 62
e 25 62
e 26 28
e 26 33
e 26 59
e 26 62
e 26 70
e 26 71
e 26 78
e 27 4
e 27 5
e 27 11
e 27 30
e 27 39
e 27 67
e 27 86
e 28 23
e 28 60
e 28 87
e 28 87
e 28 89
e 28 92
e 28 96
e 29 9
e 29 25
e 29 81
e 29 83
e 29 83
e 29 90
e 29 93
e 30 14
e 30 32
e 30 71
e 30 78
e 30 81
e 30 84
e 30 91
e 31 5
e 31 8
e 31 34
e 31 45
e 31 62
e 31 75
e 31 98
e 32 15
e 32 18
e 32 19
e 32 26
e 32 26
e 32 63
e 32 69
e 33 3
e 33 3
e 33 21
e 33 44
e 33 50
e 33 62
e 33 64
e 34 1
e 34 33
e 34 41
e 34 58
e 34 74
e 34 76
e 34 92
e 35 57
e 35 58
e 35 64
e 35 80
e 35 82
e 35 93
e 35 100
e 36 13
e 36 20
e 36 35
e 36 71
e 36 74
e 36 91
e 36 94
e 37 14
e 37 33
e 37 40
e 37 58
e 37 65
e 37 76
e 37 90
e 38 1
e 38 21
e 38 26
e 38 31
e 38 35
e 38 60
e 38 81
e 39 13
e 39 22
e 39 53
e 39 63
e 39 75
e 39 75
e 39 88
e 40 19
e 40 23
e 40 39
e 40 42
e 40 57
e 40 77
e 40 95
e 41 6
e 41 20
e 41 46
e 41 55
e 41 63
e 41 69
e 41 88
e 42 22
e 42 23
e 42 44
e 42 72
e 42 80
e 42 81
e 42 90
e 43 10
e 43 14
e 43 32
e 43 34
e 43 54
e 43 76
e 43 87
e 44 10
e 44 12
e 44 27
e 44 36
e 44 39
e 44 40
e 44 91
e 45 5
e 45 6
e 45 24
e 45 29
e 45 30
e 45 47
e 45 57
e 46 18
e 46 19
e 46 22
e 46 24
e 46 41
e 46 55
e 46 76
e 47 2
e 47 3
e 47 9
e 47 30
e 47 31
e 47 42
e 47 63
e 48 13
e 48 38
e 48 58
e 48 64
e 48 69
e 48 86
e 48 99
e 49 10
e 49 32
e 49 53
e 49 75
e 49 86
e 49 89
e 49 95
e 50 15
e 50 36
e 50 54
e 50 72
e 50 82
e 50 91
e 50 100
e 51 4
e 51 12
e 51 12
e 51 26
e 51 37
e 51 56
e 51 59
e 52 2
e 52 7
e 52 62
e 52 68
e 52 74
e 52 85
e 52 87
e 53 5
e 53 7
e 53 23
e 53 69
e 53 73
e 53 74
e 53 92
e 54 12
e 54 21
e 54 57
e 54 75
e 54 91
e 54 95
e 54 95
e 55 25
e 55 28
e 55 30
e 55 38
e 55 59
e 55 64
e 55 79
e 56 15
e 56 52
e 56 63
e 56 63
e 56 78
e 56 86
e 56 93
e 57 7
e 57 16
e 57 17
e 57 33
e 57 47
e 57 77
e 57 88
e 58 4
e 58 28
e 58 63
e 58 68
e 58 73
e 58 74
e 58 84
e 59 2
e 59 32
e 59 65
e 59 73
e 59 78
e 59 86
e 59 100
e 60 13
e 60 31
e 60 36
e 60 43
e 60 55
e 60 59
e 60 89
e 61 22
e 61 28
e 61 29
e 61 51
e 61 52
e 61 55
e 61 91
e 62 6
e 62 56
e 62 64
e 62 69
e 62 83
e 62 84
e 62 100
e 63 2
e 63 15
e 63 28
e 63 55
e 63 77
e 63 80
e 63 82
e 64 27
e 64 36
e 64 39
e 64 60
e 64 90
e 64 99
e 64 100
e 65 29
e 65 36
e 65 40
e 65 47
e 65 59
e 65 61
e 65 75
e 66 4
e 66 15
e 66 50
e 66 57
e 66 59
e 66 62
e 66 82
e 67 4
e 67 5
e 67 42
e 67 61
e 67 72
e 67 79
e 67 94
e 68 22
e 68 43
e 68 48
e 68 49
e 68 82
e 68 93
e 68 97
e 69 2
e 69 16
e 69 17
e 69 22
e 69 24
e 69 81
e 69 83
e 70 1
e 70 24
e 70 26
e 70 63
e 70 81
e 70 88
e 70 97
e 71 9
e 71 28
e 71 68
e 71 69
e 71 73
e 71 76
e 71 82
e 72 8
e 72 28
e 72 35
e 72 46
e 72 51
e 72 82
e 72 85
e 73 21
e 73 21
e 73 40
e 73 47
e 73 50
e 73 74
e 73 88
e 74 1
e 74 11
e 74 42
e 74 54
e 74 65
e 74 70
e 74 80
e 75 15
e 75 21
e 75 37
e 75 65
e 75 84
e 75 97
e 75 97
e 76 5
e 76 11
e 76 17
e 76 34
e 76 38
e 76 86
e 76 92
e 77 6
e 77 17
e 77 23
e 77 41
e 77 68
e 77 78
e 77 90
e 78 20
e 78 22
e 78 47
e 78 47
e 78 50
e 78 59
e 78 94
e 79 3
e 79 9
e 79 72
e 79 73
e 79 73
e 79 73
e 79 84
e 80 22
e 80 37
e 80 38
e 80 57
e 80 61
e 80 75
e 80 89
e 81 12
e 81 13
e 81 13
e 81 51
e 81 54
e 81 74
e 81 97
e 82 32
e 82 56
e 82 64
e 82 73
e 82 75
e 82 92
e 82 98
e 83 2
e 83 9
e 83 11
e 83 48
e 83 67
e 83 75
e 83 77
e 84 9
e 84 13
e 84 20
e 84 28
e 84 37
e 84 81
e 84 92
e 85 7
e 85 17
e 85 23
e 85 65
e 85 70
e 85 90
e 85 97
e 86 8
e 86 11
e 86 12
e 86 12
e 86 13
e 86 52
e 86 98
e 87 13
e 87 28
e 87 37
e 87 56
e 87 75
e 87 82
e 87 82
e 88 10
e 88 74
e 88 81
e 88 81
e 88 84
e 88 84
e 88 99
e 89 4
e 89 4
e 89 15
e 89 47
e 89 69
e 89 84
e 89 96
e 90 4
e 90 40
e 90 45
e 90 54
e 90 54
e 90 80
e 90 96
e 91 7
e 91 16
e 91 28
e 91 51
e 91 67
e 91 71
e 91 77
e 92 10
e 92 13
e 92 19
e 92 43
e 92 46
e 92 48
e 92 64
e 93 2
e 93 5
e 93 38
e 93 55
e 93 73
e 93 75
e 93 92
e 94 4
e 94 4
e 94 12
e 94 18
e 94 20
e 94 43
e 94 76
e 95 11
e 95 27
e 95 49
e 95 53
e 95 74
e 95 83
e 95 89
e 96 7
e 96 21
e 96 31
e 96 42
e 96 73
e 96 80
e 96 82
e 97 36
e 97 40
e 97 58
e 97 67
e 97 73
e 97 78
e 97 85
e 98 37
e 98 38
e 98 43
e 98 46
e 98 52
e 98 59
e 98 74
e 99 1
e 99 10
e 99 64
e 99 65
e 99 68
e 99 95
e 99 98
e 100 3
e 100 17
e 100 17
e 100 40
e 100 67
e 100 91
e 100 95
